282 5
10 10 10 10 10 

0 0 0 0 0 0 2 2 24 
0 0 0 0 0 0 1 3 
3 1 0 0 1 0 2 6 4 
7 1 0 0 3 0 2 5 52 
2 3 0 0 2 0 1 7 
5 2 0 0 5 0 1 7 
2 3 0 0 1 0 2 10 8 
5 2 0 0 4 0 4 22 16 15 9 
2 2 0 0 3 0 3 21 13 11 
2 4 0 0 3 0 5 21 20 19 15 14 
7 2 0 0 3 0 2 18 12 
7 1 0 0 2 0 2 19 14 
8 2 0 0 2 0 2 20 17 
2 1 0 0 1 0 1 17 
1 5 0 0 2 0 1 18 
10 3 0 0 5 0 1 17 
6 7 0 0 1 0 1 23 
3 3 0 0 3 0 1 23 
7 2 0 0 4 0 1 23 
2 2 0 0 2 0 1 23 
1 2 0 0 1 0 1 23 
10 2 0 0 2 0 1 23 
0 0 0 0 0 0 1 60 
0 0 0 0 0 0 3 25 29 31 
8 0 0 0 1 0 2 28 26 
3 0 0 0 3 0 2 33 27 
2 0 0 0 5 0 2 34 30 
8 0 0 0 2 0 2 33 32 
6 0 0 0 4 0 1 30 
5 0 0 0 3 0 2 32 103 
3 0 0 0 1 0 1 32 
2 0 0 0 4 0 1 35 
3 0 0 0 1 0 1 35 
8 0 0 0 1 0 1 35 
0 0 0 0 0 0 2 36 48 
0 0 0 0 0 0 4 37 38 39 42 
10 1 0 0 0 0 3 46 44 40 
7 2 0 0 0 0 3 46 44 40 
8 2 0 0 0 0 2 44 40 
6 1 0 0 0 0 2 41 69 
1 4 0 0 0 0 1 43 
2 3 0 0 0 0 1 43 
9 4 0 0 0 0 1 45 
6 4 0 0 0 0 1 45 
3 2 0 0 0 0 1 47 
9 2 0 0 0 0 1 47 
0 0 0 0 0 0 1 60 
0 0 0 0 0 0 3 49 50 51 
8 1 0 0 0 0 2 54 52 
6 1 0 0 0 0 2 54 52 
6 1 0 0 0 0 2 54 52 
1 1 0 0 0 0 2 55 53 
8 4 0 0 0 0 2 58 56 
1 4 0 0 0 0 2 58 56 
3 3 0 0 0 0 2 58 57 
7 4 0 0 0 0 2 57 237 
2 4 0 0 0 0 1 59 
4 2 0 0 0 0 1 59 
0 0 0 0 0 0 1 60 
0 0 0 0 0 0 5 61 73 85 97 109 
0 0 0 0 0 0 3 62 70 71 
3 0 0 1 0 0 2 69 63 
1 0 0 4 0 0 1 64 
5 0 0 3 0 0 3 68 67 65 
8 0 0 4 0 0 1 66 
5 0 0 3 0 0 1 72 
1 0 0 3 0 0 1 72 
4 0 0 1 0 0 2 72 276 
10 0 0 2 0 0 1 72 
1 0 0 3 0 0 1 72 
3 0 0 1 0 0 1 72 
0 0 0 0 0 0 1 121 
0 0 0 0 0 0 3 74 77 83 
9 1 0 0 0 0 2 80 75 
3 3 0 0 0 0 1 76 
9 4 0 0 0 0 3 82 79 78 
4 2 0 0 0 0 2 82 80 
8 2 0 0 0 0 1 81 
5 3 0 0 0 0 1 81 
4 3 0 0 0 0 1 81 
8 3 0 0 0 0 2 84 184 
4 2 0 0 0 0 1 84 
9 2 0 0 0 0 1 84 
0 0 0 0 0 0 1 121 
0 0 0 0 0 0 2 86 88 
5 0 0 0 1 0 2 90 87 
8 0 0 0 2 0 3 95 92 89 
5 0 0 0 2 0 3 95 94 93 
5 0 0 0 3 0 2 94 91 
7 0 0 0 4 0 2 94 93 
2 0 0 0 5 0 2 93 213 
8 0 0 0 3 0 1 93 
9 0 0 0 1 0 1 96 
5 0 0 0 2 0 1 96 
9 0 0 0 2 0 1 96 
0 0 0 0 0 0 1 121 
0 0 0 0 0 0 4 98 99 100 102 
8 0 0 0 1 0 2 105 101 
6 0 0 0 2 0 1 101 
7 0 0 0 2 0 2 107 104 
8 0 0 0 2 0 1 103 
4 0 0 0 1 0 1 103 
4 0 0 0 4 0 2 104 249 
3 0 0 0 4 0 1 106 
3 0 0 0 5 0 1 106 
6 0 0 0 3 0 1 108 
10 0 0 0 1 0 1 108 
0 0 0 0 0 0 1 121 
0 0 0 0 0 0 3 110 112 162 
10 0 0 0 0 1 1 111 
9 0 0 0 0 3 2 115 113 
10 0 0 0 0 3 2 114 113 
2 0 0 0 0 4 2 117 116 
5 0 0 0 0 2 2 117 116 
4 0 0 0 0 1 2 118 116 
6 0 0 0 0 3 1 119 
9 0 0 0 0 2 1 118 
2 0 0 0 0 4 1 120 
9 0 0 0 0 2 1 120 
0 0 0 0 0 0 1 121 
0 0 0 0 0 0 5 122 144 166 178 200 
0 0 0 0 0 0 1 123 
7 1 0 0 0 1 2 142 124 
6 2 0 0 0 3 2 141 125 
1 3 0 0 0 4 3 140 139 126 
3 3 0 0 0 2 2 138 127 
9 2 0 0 0 5 4 137 136 135 128 
2 2 0 0 0 3 2 134 129 
4 5 0 0 0 1 2 133 130 
6 3 0 0 0 3 1 131 
4 3 0 0 0 1 1 132 
8 2 0 0 0 2 1 143 
7 3 0 0 0 1 1 143 
7 2 0 0 0 2 1 143 
9 3 0 0 0 2 1 143 
8 1 0 0 0 2 1 143 
9 2 0 0 0 2 1 143 
3 3 0 0 0 3 1 143 
2 1 0 0 0 2 1 143 
2 4 0 0 0 4 1 143 
3 3 0 0 0 3 1 143 
4 2 0 0 0 4 1 143 
0 0 0 0 0 0 1 282 
0 0 0 0 0 0 3 145 146 148 
10 0 1 0 1 0 3 158 153 147 
9 0 3 0 2 0 5 159 158 154 153 151 
8 0 3 0 3 0 2 159 149 
10 0 3 0 2 0 4 158 154 153 151 
5 0 1 0 1 0 2 154 150 
2 0 2 0 5 0 1 151 
9 0 4 0 3 0 1 152 
3 0 3 0 3 0 4 162 161 157 155 
1 0 4 0 1 0 3 162 161 157 
10 0 2 0 2 0 2 162 155 
6 0 1 0 3 0 1 156 
4 0 2 0 4 0 1 160 
4 0 3 0 5 0 1 160 
3 0 2 0 2 0 1 161 
1 0 2 0 2 0 1 161 
3 0 3 0 1 0 1 163 
8 0 3 0 2 0 1 163 
4 0 3 0 3 0 1 164 
10 0 1 0 1 0 1 165 
6 0 4 0 4 0 1 165 
0 0 0 0 0 0 1 282 
0 0 0 0 0 0 5 167 169 173 174 176 
3 0 0 1 0 0 2 172 168 
1 0 0 3 0 0 1 170 
4 0 0 3 0 0 1 170 
3 0 0 3 0 0 1 171 
2 0 0 2 0 0 1 175 
4 0 0 3 0 0 1 175 
3 0 0 5 0 0 1 175 
3 0 0 2 0 0 1 175 
3 0 0 1 0 0 1 177 
10 0 0 2 0 0 1 177 
0 0 0 0 0 0 5 222 234 246 258 270 
0 0 0 0 0 0 1 179 
7 1 1 0 0 0 2 198 180 
2 3 2 0 0 0 2 197 181 
2 4 3 0 0 0 3 196 195 182 
1 3 3 0 0 0 3 194 193 183 
6 1 3 0 0 0 3 192 191 184 
7 3 2 0 0 0 2 190 185 
7 2 3 0 0 0 2 189 186 
5 3 1 0 0 0 1 187 
8 3 1 0 0 0 1 188 
10 1 3 0 0 0 1 199 
2 8 4 0 0 0 1 199 
5 1 7 0 0 0 1 199 
1 1 4 0 0 0 1 199 
3 3 3 0 0 0 1 199 
3 2 2 0 0 0 1 199 
6 4 1 0 0 0 1 199 
10 4 2 0 0 0 1 199 
6 1 3 0 0 0 1 199 
2 1 1 0 0 0 1 199 
6 1 1 0 0 0 1 199 
0 0 0 0 0 0 1 282 
0 0 0 0 0 0 7 201 204 216 217 218 219 220 
3 0 0 1 1 0 3 215 214 202 
9 0 0 4 1 0 2 213 203 
1 0 0 1 2 0 2 212 205 
6 0 0 4 3 0 1 205 
1 0 0 2 3 0 1 206 
8 0 0 2 2 0 1 207 
3 0 0 4 3 0 1 208 
1 0 0 1 2 0 1 209 
6 0 0 2 1 0 1 210 
10 0 0 4 3 0 1 211 
6 0 0 1 3 0 1 221 
9 0 0 2 5 0 1 221 
10 0 0 2 3 0 1 221 
6 0 0 4 2 0 1 221 
10 0 0 5 4 0 1 221 
10 0 0 2 2 0 1 221 
6 0 0 1 3 0 1 221 
1 0 0 3 2 0 1 221 
1 0 0 2 2 0 1 221 
3 0 0 3 3 0 1 221 
0 0 0 0 0 0 1 282 
0 0 0 0 0 0 2 223 225 
2 0 1 0 0 0 2 227 224 
5 0 1 0 0 0 3 230 228 226 
1 0 2 0 0 0 3 230 229 228 
7 0 6 0 0 0 2 232 229 
3 0 1 0 0 0 1 228 
10 0 1 0 0 0 2 232 231 
10 0 3 0 0 0 1 231 
7 0 4 0 0 0 1 231 
2 0 4 0 0 0 1 233 
8 0 2 0 0 0 1 233 
0 0 0 0 0 0 1 282 
0 0 0 0 0 0 2 235 237 
1 0 0 0 0 1 2 239 236 
10 0 0 0 0 5 2 240 238 
10 0 0 0 0 2 2 239 238 
4 0 0 0 0 2 2 242 241 
6 0 0 0 0 4 2 242 241 
7 0 0 0 0 5 2 242 241 
4 0 0 0 0 1 1 244 
4 0 0 0 0 2 1 243 
7 0 0 0 0 2 1 245 
2 0 0 0 0 1 1 245 
0 0 0 0 0 0 1 282 
0 0 0 0 0 0 3 247 250 256 
4 0 1 0 0 0 2 252 248 
8 0 3 0 0 0 1 249 
7 0 5 0 0 0 2 253 251 
6 0 4 0 0 0 1 252 
1 0 3 0 0 0 2 255 254 
7 0 4 0 0 0 2 255 254 
1 0 2 0 0 0 1 254 
2 0 1 0 0 0 1 257 
9 0 1 0 0 0 1 257 
8 0 1 0 0 0 1 257 
0 0 0 0 0 0 1 282 
0 0 0 0 0 0 1 259 
5 0 0 0 1 0 3 263 261 260 
10 0 0 0 4 0 4 268 267 266 264 
7 0 0 0 3 0 2 267 262 
2 0 0 0 3 0 2 266 264 
7 0 0 0 1 0 1 264 
10 0 0 0 2 0 1 265 
10 0 0 0 4 0 1 269 
6 0 0 0 2 0 1 269 
5 0 0 0 1 0 1 269 
6 0 0 0 4 0 1 269 
0 0 0 0 0 0 1 282 
0 0 0 0 0 0 1 271 
7 1 0 0 0 0 2 274 272 
3 3 0 0 0 0 2 275 273 
6 4 0 0 0 0 2 278 276 
8 3 0 0 0 0 2 280 277 
3 1 0 0 0 0 1 276 
6 3 0 0 0 0 2 280 279 
5 1 0 0 0 0 1 278 
1 3 0 0 0 0 1 279 
1 3 0 0 0 0 1 281 
10 3 0 0 0 0 1 281 
0 0 0 0 0 0 1 282 
0 0 0 0 0 0 0 
